CMD:
./solvers/bin/cadical --plain --no-reduce -t 1600 ./data/cnfs//intel007/intel007.54.cnf

c --- [ banner ] -------------------------------------------------------------
c 
c CaDiCaL SAT Solver
c Copyright (c) 2016-2024
c A. Biere, M. Fleury, N. Froleyks, K. Fazekas, F. Pollitt, T. Faller
c JKU Linz, University of Freiburg, TU Wien
c 
c Version 2.1.3 5296d3d2a9bf48c154ab2acb5e44625776d821bf
c g++ (Gentoo 12.3.1_p20230526 p2) 12.3.1 20230526 -Wall -Wextra -O3 -DNDEBUG
c Sat Aug 9 07:26:21 PDT 2025 Linux cedar2.int.cedar.computecanada.ca 5.14.0-362.24.2.el9_3.x86_64 x86_64
c 
c --- [ limit ] --------------------------------------------------------------
c 
c setting time limit to 1600 seconds real time (due to '-t 1600')
c 
c --- [ parsing input ] ------------------------------------------------------
c 
c reading DIMACS file from './data/cnfs//intel007/intel007.54.cnf'
c opening file to read './data/cnfs//intel007/intel007.54.cnf'
c found 'p cnf 699307 1880327' header
c parsed 1880327 clauses in 0.44 seconds process time
c 
c --- [ options ] ------------------------------------------------------------
c 
c   --compact=false                (different from default 'true')
c   --decompose=false              (different from default 'true')
c   --deduplicate=false            (different from default 'true')
c   --elim=false                   (different from default 'true')
c   --probe=false                  (different from default 'true')
c   --reduce=false                 (different from default 'true')
c   --subsume=false                (different from default 'true')
c   --ternary=false                (different from default 'true')
c   --transred=false               (different from default 'true')
c   --vivify=false                 (different from default 'true')
c 
c --- [ solving ] ------------------------------------------------------------
c 
c time measured in process time since initialization
c 
c  seconds   reductions  redundant   irredundant
c          MB    restarts       trail        variables
c           level   conflicts       glue           remaining
c 
c *  0.44 308  0 0   0    0    0  0% 0 1874530 509257 73%
c {  0.45 309  0 0   0    0    0  0% 0 1874530 509257 73%
c i  0.55 312 796 0   2   41   40 34% 2 1874530 509256 73%
c i  0.59 312 922 0   4   55   53 40% 2 1874530 509230 73%
c i  1.43 315 317 0  31  345  253 36% 15 1874530 509192 73%
c i  1.43 315 223 0  31  522  361 33% 12 1874530 508031 73%
c i  1.44 315 140 0  31  762  480 31% 9 1874530 507280 73%
c }  1.66 315 130 0  31 1000  716 32% 8 1874530 507280 73%
c [  1.66 315  0 0  31 1000  716  0% 0 1874530 507280 73%
c O  1.67 315 403 0  31 1002  718 32% 1 1874530 507280 73%
c i  2.07 319 27617 0  32 2306 1899 80% 49 1874530 506605 72%
c ]  3.88 319 18773 0  32 3000 2514 66% 34 1874530 506605 72%
c {  3.88 319 130 0  32 3000 2514 32% 8 1874530 506605 72%
c F  3.90 319 130 0  32 3004 2518 32% 8 1874530 506605 72%
c i  5.03 319 75 0  74 5003 4171 32% 6 1874530 505930 72%
c i  5.33 319 68 0  81 5436 4535 32% 5 1874530 505927 72%
c i  5.35 319 67 0  81 5486 4547 32% 5 1874530 505926 72%
c #  5.94 319 63 0 101 6005 4994 32% 5 1874530 505926 72%
c }  7.87 320 59 0 291 7000 5857 33% 6 1874530 505926 72%
c [  7.87 320 18773 0 291 7000 5857 66% 34 1874530 505926 72%
c 
c  seconds     reductions   redundant    irredundant
c          MB      restarts        trail         variables
c            level     conflicts       glue            remaining
c 
c I 16.88 321 7275 0 293 10007 8564 50% 24 1874530 505926 72%
c ] 29.62 322 3546 0 296 15003 12807 44% 18 1874530 505926 72%
c { 29.62 322 59 0 296 15003 12807 33% 6 1874530 505926 72%
c B 29.67 322 59 0 298 15008 12812 33% 6 1874530 505926 72%
c i 29.68 322 59 0 303 15040 12824 33% 6 1874530 503227 72%
c i 32.22 322 48 0 405 16702 14055 33% 6 1874530 502552 72%
c i 32.32 322 48 0 405 16803 14085 33% 6 1874530 501877 72%
c i 35.52 322 44 0 569 18105 15051 34% 6 1874530 501202 72%
c i 36.52 322 43 0 586 18616 15432 34% 6 1874530 500527 72%
c i 36.53 322 43 0 586 18618 15433 34% 6 1874530 499849 71%
c i 36.77 323 42 0 587 18784 15523 34% 6 1874530 499174 71%
c i 36.80 323 42 0 587 18800 15528 34% 6 1874530 498499 71%
c i 38.12 323 43 0 625 19281 15921 34% 6 1874530 497824 71%
c i 40.48 323 41 0 670 20046 16581 35% 6 1874530 497149 71%
c i 41.54 323 41 0 679 20457 16916 35% 6 1874530 496474 71%
c i 42.41 323 40 0 684 20689 17094 35% 6 1874530 495799 71%
c i 42.54 323 40 0 684 20741 17129 35% 6 1874530 494807 71%
c i 42.68 323 40 0 684 20806 17176 35% 6 1874530 494013 71%
c W 44.17 319 39 0 684 21009 7274 35% 6 1280298 494012 71%
c i 45.09 319 38 0 684 21335 7469 35% 6 1280298 447573 64%
c 
c  seconds   reductions   redundant   irredundant
c          MB    restarts        trail        variables
c           level    conflicts       glue           remaining
c 
c i 45.09 319 38 0 684 21336 7469 35% 6 1280298 445173 64%
c i 45.12 319 38 0 684 21354 7479 35% 6 1280298 445144 64%
c i 45.12 319 38 0 684 21356 7480 35% 6 1280298 428342 61%
c i 45.13 319 38 0 684 21360 7482 35% 6 1280298 424523 61%
c i 45.13 319 38 0 684 21361 7482 35% 6 1280298 419349 60%
c } 45.13 319 38 0 684 21363 7482 35% 6 1280298 414449 59%
c 0 45.13 319 38 0 684 21363 7482 35% 6 1280298 414449 59%
c 
c --- [ result ] -------------------------------------------------------------
c 
s UNSATISFIABLE
c 
c --- [ run-time profiling ] -------------------------------------------------
c 
c process time taken by individual solving procedures
c (percentage relative to process time for solving)
c 
c        44.69  100.00% search
c        23.98   53.65% stable
c        20.03   44.83% unstable
c         0.67    1.51% walk
c         0.44    0.98% parse
c         0.01    0.02% lucky
c         0.00    0.00% simplify
c   =================================
c        44.69   99.02% solve
c 
c last line shows process time for solving
c (percentage relative to total process time)
c 
c --- [ statistics ] ---------------------------------------------------------
c 
c chronological:              6388        29.90 %  of conflicts
c conflicts:                 21363       478.03    per second
c decisions:                151171      3382.69    per second
c fixed:                    284858        40.73 %  of all variables
c learned:                   20473        95.83 %  per conflict
c learned_lits:            2403668       100.00 %  learned literals
c minimized:                     0         0.00 %  learned literals
c shrunken:                1401074        58.29 %  learned literals
c minishrunken:             311710        12.97 %  learned literals
c otfs:                         36         0.17 %  of conflict
c propagations:          316155983         7.07 M  per second
c rephased:                      6      3560.50    interval
c restarts:                    684        31.23    interval
c stabilizing:                   2        46.82 %  of conflicts
c subsumed:                   2901         0.15 %  of all clauses
c strengthened:                 36         0.00 %  of all clauses
c walked:                        1     21363.00    interval
c 
c seconds are measured in process time for solving
c 
c --- [ resources ] ----------------------------------------------------------
c 
c total process time since initialization:        45.13    seconds
c total real time since initialization:           45.36    seconds
c maximum resident set size of process:          331.53    MB
c 
c --- [ shutting down ] ------------------------------------------------------
c 
c exit 20
